p cep 144 6127
1 2
1 3
1 4
1 5
1 6
1 7
1 11
1 12
1 14
1 15
1 16
1 17
1 18
1 19
1 20
1 21
1 22
1 23
1 24
1 28
1 29
1 30
1 31
1 32
1 33
1 34
1 35
1 36
1 37
1 38
1 39
1 40
1 41
1 43
1 44
1 46
1 47
1 48
1 49
1 50
1 52
1 53
1 54
1 55
1 56
1 58
1 60
1 61
1 63
1 64
1 65
1 68
1 70
1 71
1 72
1 73
1 74
1 76
1 77
1 78
1 79
1 80
1 81
1 82
1 85
1 86
1 87
1 88
1 89
1 90
1 91
1 92
1 93
1 94
1 95
1 97
1 98
1 99
1 100
1 101
1 102
1 104
1 105
1 106
1 107
1 108
1 109
1 110
1 111
1 113
1 114
1 115
1 116
1 117
1 118
1 119
1 121
1 122
1 123
1 125
1 127
1 129
1 131
1 132
1 135
1 136
1 137
1 138
1 139
1 140
1 141
1 143
2 3
2 4
2 5
2 6
2 12
2 14
2 15
2 16
2 17
2 18
2 19
2 20
2 21
2 23
2 24
2 28
2 30
2 31
2 32
2 33
2 34
2 35
2 38
2 39
2 40
2 44
2 47
2 48
2 49
2 50
2 52
2 53
2 54
2 56
2 58
2 60
2 61
2 63
2 64
2 65
2 68
2 70
2 71
2 72
2 73
2 74
2 76
2 77
2 78
2 79
2 80
2 81
2 82
2 85
2 86
2 87
2 88
2 89
2 90
2 91
2 92
2 93
2 94
2 95
2 97
2 98
2 99
2 100
2 101
2 102
2 104
2 105
2 107
2 108
2 109
2 110
2 111
2 113
2 114
2 115
2 116
2 117
2 118
2 119
2 121
2 122
2 123
2 125
2 129
2 131
2 132
2 135
2 136
2 137
2 138
2 139
2 141
3 4
3 5
3 6
3 7
3 9
3 10
3 12
3 14
3 15
3 16
3 17
3 18
3 19
3 20
3 21
3 22
3 23
3 24
3 28
3 29
3 30
3 31
3 32
3 33
3 34
3 35
3 37
3 38
3 39
3 40
3 41
3 44
3 46
3 47
3 48
3 49
3 50
3 52
3 53
3 54
3 56
3 58
3 60
3 61
3 63
3 64
3 65
3 68
3 70
3 71
3 72
3 73
3 74
3 76
3 77
3 78
3 79
3 80
3 81
3 82
3 85
3 86
3 87
3 88
3 89
3 90
3 91
3 92
3 93
3 94
3 95
3 97
3 98
3 99
3 100
3 101
3 102
3 104
3 105
3 106
3 107
3 108
3 109
3 110
3 111
3 112
3 113
3 114
3 115
3 116
3 117
3 118
3 119
3 121
3 122
3 123
3 125
3 127
3 129
3 131
3 132
3 135
3 136
3 137
3 138
3 139
3 140
3 141
3 143
4 5
4 6
4 7
4 10
4 11
4 12
4 14
4 15
4 16
4 17
4 18
4 19
4 20
4 21
4 22
4 23
4 24
4 28
4 29
4 30
4 31
4 32
4 33
4 34
4 35
4 38
4 41
4 44
4 47
4 48
4 50
4 52
4 53
4 54
4 55
4 56
4 58
4 60
4 61
4 63
4 64
4 65
4 70
4 71
4 72
4 73
4 74
4 76
4 77
4 78
4 79
4 80
4 81
4 82
4 85
4 86
4 87
4 88
4 89
4 90
4 91
4 92
4 93
4 94
4 95
4 96
4 97
4 98
4 99
4 100
4 101
4 102
4 104
4 105
4 107
4 108
4 109
4 110
4 111
4 113
4 114
4 115
4 116
4 117
4 118
4 119
4 121
4 122
4 123
4 125
4 126
4 127
4 129
4 131
4 132
4 135
4 136
4 137
4 138
4 139
4 140
4 141
4 143
5 7
5 11
5 12
5 14
5 15
5 16
5 17
5 18
5 19
5 20
5 21
5 22
5 23
5 24
5 28
5 29
5 30
5 31
5 32
5 33
5 34
5 35
5 38
5 40
5 41
5 44
5 47
5 48
5 49
5 50
5 52
5 53
5 54
5 55
5 56
5 58
5 60
5 61
5 63
5 64
5 65
5 71
5 72
5 73
5 74
5 76
5 77
5 78
5 79
5 80
5 81
5 82
5 85
5 86
5 87
5 88
5 89
5 90
5 91
5 92
5 93
5 94
5 95
5 97
5 98
5 99
5 100
5 101
5 102
5 104
5 105
5 106
5 107
5 108
5 109
5 110
5 113
5 114
5 115
5 116
5 117
5 118
5 119
5 121
5 122
5 123
5 125
5 127
5 129
5 131
5 132
5 135
5 136
5 137
5 138
5 139
5 140
5 141
5 143
6 7
6 9
6 11
6 12
6 14
6 15
6 16
6 17
6 18
6 20
6 22
6 23
6 24
6 28
6 30
6 32
6 33
6 34
6 36
6 37
6 38
6 39
6 40
6 43
6 46
6 47
6 48
6 50
6 54
6 55
6 56
6 58
6 60
6 61
6 63
6 64
6 65
6 71
6 72
6 73
6 74
6 76
6 77
6 79
6 80
6 82
6 83
6 85
6 86
6 88
6 89
6 90
6 91
6 92
6 94
6 95
6 96
6 97
6 98
6 99
6 100
6 101
6 102
6 104
6 105
6 106
6 107
6 108
6 109
6 110
6 111
6 112
6 113
6 114
6 115
6 116
6 117
6 118
6 119
6 121
6 123
6 127
6 129
6 130
6 132
6 133
6 136
6 137
6 138
6 139
6 141
6 143
7 8
7 9
7 10
7 11
7 12
7 13
7 14
7 15
7 16
7 17
7 18
7 20
7 22
7 23
7 26
7 28
7 30
7 32
7 34
7 36
7 37
7 38
7 39
7 40
7 41
7 43
7 45
7 46
7 47
7 48
7 54
7 55
7 56
7 58
7 60
7 61
7 62
7 63
7 64
7 65
7 66
7 69
7 71
7 72
7 74
7 78
7 79
7 81
7 82
7 83
7 85
7 86
7 87
7 88
7 89
7 90
7 91
7 92
7 94
7 95
7 96
7 97
7 98
7 99
7 100
7 101
7 102
7 104
7 105
7 106
7 107
7 108
7 109
7 110
7 111
7 112
7 113
7 114
7 116
7 117
7 119
7 121
7 122
7 123
7 124
7 126
7 127
7 129
7 130
7 131
7 132
7 136
7 137
7 138
7 139
7 140
7 141
7 143
8 10
8 11
8 13
8 22
8 25
8 26
8 27
8 42
8 43
8 45
8 51
8 55
8 62
8 66
8 67
8 69
8 75
8 82
8 96
8 106
8 124
8 126
8 128
8 133
8 139
8 142
8 143
8 144
9 18
9 22
9 37
9 39
9 43
9 46
9 64
9 74
9 84
9 85
9 94
9 99
9 103
9 104
9 111
9 112
9 120
10 11
10 13
10 14
10 18
10 20
10 22
10 25
10 26
10 27
10 32
10 42
10 45
10 51
10 52
10 56
10 60
10 62
10 64
10 65
10 66
10 67
10 69
10 74
10 75
10 81
10 82
10 85
10 87
10 90
10 91
10 92
10 94
10 96
10 97
10 104
10 106
10 108
10 109
10 121
10 124
10 128
10 133
10 138
10 139
10 140
10 141
10 142
10 143
10 144
11 13
11 14
11 20
11 22
11 25
11 26
11 27
11 30
11 32
11 36
11 39
11 43
11 45
11 55
11 60
11 61
11 62
11 63
11 65
11 66
11 67
11 69
11 80
11 81
11 82
11 83
11 85
11 90
11 91
11 96
11 97
11 100
11 106
11 108
11 111
11 113
11 121
11 124
11 126
11 128
11 130
11 133
11 138
11 139
11 140
11 141
11 143
11 144
12 14
12 15
12 16
12 17
12 18
12 19
12 20
12 21
12 22
12 23
12 24
12 28
12 29
12 30
12 31
12 32
12 33
12 34
12 35
12 38
12 39
12 40
12 41
12 43
12 44
12 46
12 47
12 48
12 49
12 50
12 52
12 53
12 54
12 56
12 58
12 60
12 61
12 62
12 63
12 64
12 65
12 68
12 70
12 71
12 72
12 73
12 74
12 76
12 77
12 78
12 79
12 80
12 81
12 82
12 85
12 86
12 87
12 88
12 89
12 90
12 91
12 92
12 93
12 94
12 95
12 97
12 98
12 99
12 100
12 101
12 102
12 104
12 105
12 107
12 108
12 109
12 110
12 111
12 113
12 114
12 115
12 116
12 117
12 118
12 119
12 120
12 121
12 122
12 123
12 125
12 127
12 129
12 131
12 132
12 135
12 136
12 137
12 138
12 139
12 140
12 141
13 14
13 22
13 25
13 26
13 27
13 32
13 38
13 42
13 45
13 48
13 51
13 55
13 58
13 60
13 62
13 65
13 66
13 67
13 69
13 72
13 75
13 81
13 82
13 85
13 90
13 91
13 92
13 101
13 102
13 105
13 106
13 108
13 116
13 119
13 124
13 128
13 133
13 138
13 142
13 143
13 144
14 15
14 16
14 17
14 18
14 19
14 20
14 21
14 22
14 23
14 24
14 25
14 26
14 28
14 29
14 30
14 31
14 32
14 33
14 34
14 35
14 36
14 37
14 38
14 39
14 40
14 41
14 43
14 44
14 46
14 47
14 48
14 49
14 50
14 52
14 53
14 54
14 55
14 56
14 58
14 60
14 61
14 62
14 63
14 64
14 65
14 68
14 69
14 70
14 71
14 72
14 73
14 74
14 76
14 77
14 78
14 79
14 80
14 81
14 82
14 85
14 86
14 87
14 88
14 89
14 90
14 91
14 92
14 93
14 94
14 95
14 97
14 98
14 99
14 100
14 101
14 102
14 104
14 105
14 106
14 107
14 108
14 109
14 110
14 111
14 113
14 114
14 115
14 116
14 117
14 118
14 119
14 121
14 122
14 123
14 125
14 127
14 129
14 131
14 132
14 133
14 135
14 136
14 137
14 138
14 139
14 140
14 141
14 143
15 16
15 17
15 18
15 19
15 20
15 21
15 22
15 23
15 24
15 28
15 29
15 30
15 31
15 32
15 33
15 34
15 35
15 38
15 39
15 40
15 41
15 43
15 44
15 45
15 46
15 47
15 48
15 49
15 50
15 52
15 53
15 54
15 55
15 56
15 58
15 60
15 61
15 63
15 64
15 65
15 68
15 70
15 71
15 72
15 73
15 74
15 76
15 77
15 78
15 79
15 80
15 81
15 82
15 85
15 86
15 87
15 88
15 89
15 90
15 91
15 92
15 93
15 94
15 95
15 97
15 98
15 99
15 100
15 101
15 102
15 104
15 105
15 107
15 108
15 109
15 110
15 111
15 113
15 114
15 115
15 116
15 117
15 118
15 119
15 121
15 122
15 123
15 125
15 127
15 129
15 131
15 132
15 135
15 136
15 137
15 138
15 139
15 140
15 141
16 17
16 18
16 19
16 20
16 21
16 22
16 23
16 24
16 28
16 29
16 30
16 31
16 32
16 33
16 34
16 35
16 38
16 39
16 40
16 41
16 43
16 44
16 46
16 47
16 48
16 49
16 50
16 52
16 53
16 54
16 55
16 56
16 58
16 60
16 61
16 63
16 64
16 65
16 68
16 70
16 71
16 72
16 73
16 74
16 76
16 77
16 78
16 79
16 80
16 81
16 82
16 85
16 86
16 87
16 88
16 89
16 90
16 91
16 92
16 93
16 94
16 95
16 97
16 98
16 99
16 100
16 101
16 102
16 104
16 105
16 106
16 107
16 108
16 109
16 110
16 111
16 113
16 114
16 115
16 116
16 117
16 118
16 119
16 121
16 122
16 123
16 125
16 127
16 129
16 131
16 132
16 135
16 136
16 137
16 138
16 139
16 140
16 141
16 143
17 18
17 19
17 20
17 21
17 22
17 23
17 24
17 28
17 29
17 30
17 31
17 32
17 33
17 34
17 35
17 38
17 39
17 40
17 41
17 44
17 46
17 47
17 48
17 49
17 50
17 52
17 53
17 54
17 55
17 56
17 58
17 60
17 61
17 63
17 64
17 65
17 68
17 70
17 71
17 72
17 73
17 74
17 76
17 77
17 78
17 79
17 80
17 81
17 82
17 85
17 86
17 87
17 88
17 89
17 90
17 91
17 92
17 94
17 95
17 97
17 98
17 99
17 100
17 101
17 102
17 104
17 105
17 107
17 108
17 109
17 110
17 111
17 113
17 114
17 115
17 116
17 117
17 118
17 119
17 121
17 122
17 123
17 125
17 127
17 129
17 131
17 132
17 135
17 136
17 137
17 138
17 139
17 140
17 141
18 19
18 20
18 21
18 22
18 23
18 24
18 28
18 29
18 30
18 31
18 32
18 33
18 34
18 35
18 37
18 38
18 39
18 40
18 41
18 44
18 46
18 47
18 48
18 49
18 50
18 52
18 53
18 54
18 56
18 58
18 60
18 61
18 62
18 63
18 64
18 65
18 68
18 70
18 71
18 72
18 73
18 74
18 76
18 77
18 78
18 79
18 80
18 81
18 82
18 85
18 86
18 87
18 88
18 89
18 90
18 91
18 92
18 93
18 94
18 95
18 97
18 98
18 99
18 100
18 101
18 102
18 104
18 105
18 106
18 107
18 108
18 109
18 110
18 111
18 113
18 114
18 115
18 116
18 117
18 118
18 119
18 121
18 122
18 123
18 125
18 127
18 129
18 131
18 132
18 135
18 136
18 137
18 138
18 139
18 140
18 141
18 143
19 20
19 21
19 24
19 28
19 30
19 31
19 32
19 33
19 34
19 35
19 38
19 40
19 44
19 48
19 49
19 50
19 52
19 53
19 54
19 56
19 58
19 60
19 61
19 63
19 64
19 65
19 68
19 70
19 71
19 72
19 73
19 74
19 76
19 77
19 78
19 79
19 80
19 81
19 82
19 85
19 86
19 87
19 88
19 89
19 90
19 91
19 92
19 93
19 94
19 95
19 97
19 98
19 99
19 100
19 101
19 102
19 104
19 105
19 107
19 108
19 109
19 110
19 113
19 114
19 115
19 116
19 117
19 118
19 119
19 121
19 122
19 123
19 125
19 127
19 129
19 131
19 132
19 135
19 136
19 137
19 138
19 139
19 140
19 141
20 21
20 22
20 23
20 24
20 28
20 29
20 30
20 31
20 32
20 33
20 34
20 35
20 38
20 39
20 40
20 41
20 43
20 44
20 45
20 46
20 47
20 48
20 49
20 50
20 52
20 53
20 54
20 55
20 56
20 57
20 58
20 60
20 61
20 63
20 64
20 65
20 68
20 70
20 71
20 72
20 73
20 74
20 76
20 77
20 78
20 79
20 80
20 81
20 82
20 85
20 86
20 87
20 88
20 89
20 90
20 91
20 92
20 93
20 94
20 95
20 97
20 98
20 99
20 100
20 101
20 102
20 104
20 105
20 106
20 107
20 108
20 109
20 110
20 111
20 113
20 114
20 115
20 116
20 117
20 118
20 119
20 121
20 122
20 123
20 124
20 125
20 127
20 129
20 131
20 132
20 133
20 135
20 136
20 137
20 138
20 139
20 140
20 141
21 23
21 24
21 28
21 30
21 31
21 32
21 33
21 34
21 35
21 38
21 40
21 41
21 44
21 47
21 48
21 49
21 50
21 52
21 53
21 54
21 56
21 58
21 60
21 61
21 63
21 64
21 65
21 68
21 70
21 71
21 72
21 73
21 74
21 76
21 77
21 78
21 79
21 80
21 81
21 82
21 85
21 86
21 87
21 88
21 89
21 90
21 91
21 92
21 93
21 94
21 95
21 97
21 98
21 99
21 100
21 101
21 102
21 104
21 105
21 107
21 108
21 109
21 110
21 113
21 114
21 115
21 116
21 117
21 118
21 119
21 121
21 122
21 123
21 125
21 127
21 129
21 131
21 132
21 135
21 136
21 137
21 138
21 139
21 140
21 141
22 23
22 26
22 28
22 30
22 32
22 34
22 36
22 37
22 38
22 39
22 41
22 43
22 45
22 46
22 47
22 48
22 50
22 54
22 55
22 56
22 58
22 60
22 61
22 62
22 63
22 64
22 65
22 69
22 71
22 72
22 74
22 78
22 79
22 81
22 82
22 83
22 85
22 86
22 87
22 88
22 89
22 90
22 91
22 92
22 94
22 95
22 96
22 97
22 98
22 99
22 100
22 101
22 102
22 104
22 105
22 106
22 108
22 109
22 110
22 111
22 112
22 113
22 114
22 116
22 117
22 119
22 121
22 123
22 126
22 127
22 129
22 130
22 132
22 136
22 137
22 138
22 139
22 140
22 141
22 143
23 24
23 28
23 29
23 30
23 31
23 32
23 33
23 34
23 35
23 38
23 39
23 40
23 41
23 43
23 44
23 47
23 48
23 49
23 50
23 52
23 53
23 54
23 55
23 56
23 58
23 60
23 61
23 63
23 64
23 65
23 68
23 70
23 71
23 72
23 73
23 74
23 76
23 77
23 78
23 79
23 80
23 81
23 82
23 85
23 86
23 87
23 88
23 89
23 90
23 91
23 92
23 93
23 94
23 95
23 97
23 98
23 99
23 100
23 101
23 102
23 104
23 105
23 107
23 108
23 109
23 110
23 111
23 113
23 114
23 115
23 116
23 117
23 118
23 119
23 121
23 122
23 123
23 125
23 127
23 128
23 129
23 131
23 132
23 135
23 136
23 137
23 138
23 139
23 140
23 141
23 143
24 28
24 30
24 31
24 32
24 33
24 34
24 35
24 38
24 39
24 40
24 44
24 47
24 48
24 49
24 50
24 52
24 53
24 54
24 56
24 58
24 60
24 61
24 63
24 64
24 65
24 68
24 70
24 71
24 72
24 73
24 74
24 76
24 77
24 78
24 79
24 80
24 81
24 82
24 85
24 86
24 87
24 88
24 89
24 90
24 92
24 93
24 94
24 95
24 97
24 98
24 99
24 100
24 101
24 102
24 104
24 105
24 107
24 108
24 109
24 110
24 111
24 113
24 114
24 115
24 116
24 117
24 118
24 119
24 121
24 122
24 123
24 125
24 127
24 129
24 131
24 132
24 135
24 136
24 137
24 138
24 139
24 140
24 141
25 26
25 27
25 42
25 45
25 51
25 62
25 66
25 67
25 69
25 75
25 82
25 106
25 108
25 121
25 124
25 128
25 133
25 138
25 141
25 142
25 143
25 144
26 27
26 32
26 38
26 42
26 45
26 48
26 51
26 55
26 58
26 60
26 62
26 65
26 66
26 67
26 69
26 72
26 75
26 81
26 82
26 85
26 90
26 91
26 92
26 101
26 102
26 105
26 106
26 108
26 116
26 119
26 124
26 128
26 133
26 138
26 142
26 143
26 144
27 32
27 36
27 42
27 45
27 51
27 62
27 66
27 67
27 69
27 75
27 90
27 106
27 124
27 128
27 133
27 139
27 142
27 143
27 144
28 29
28 30
28 31
28 32
28 33
28 34
28 35
28 38
28 39
28 40
28 41
28 43
28 44
28 45
28 46
28 47
28 48
28 49
28 50
28 52
28 53
28 54
28 55
28 56
28 58
28 60
28 61
28 63
28 64
28 65
28 68
28 70
28 71
28 72
28 73
28 74
28 76
28 77
28 78
28 79
28 80
28 81
28 82
28 85
28 86
28 87
28 88
28 89
28 90
28 91
28 92
28 94
28 95
28 97
28 98
28 99
28 100
28 101
28 102
28 104
28 105
28 107
28 108
28 109
28 110
28 111
28 113
28 114
28 115
28 116
28 117
28 118
28 119
28 121
28 122
28 123
28 125
28 127
28 129
28 131
28 132
28 135
28 136
28 137
28 138
28 139
28 140
28 141
29 30
29 31
29 32
29 34
29 38
29 41
29 47
29 48
29 50
29 54
29 56
29 58
29 60
29 61
29 63
29 64
29 65
29 71
29 72
29 74
29 78
29 79
29 81
29 82
29 85
29 86
29 87
29 88
29 89
29 90
29 91
29 92
29 94
29 97
29 98
29 99
29 100
29 101
29 102
29 104
29 105
29 107
29 108
29 109
29 110
29 113
29 114
29 116
29 117
29 119
29 121
29 123
29 127
29 129
29 131
29 132
29 136
29 137
29 138
29 139
29 140
29 141
30 31
30 32
30 33
30 34
30 35
30 36
30 38
30 39
30 40
30 41
30 43
30 44
30 47
30 48
30 49
30 50
30 52
30 53
30 54
30 55
30 56
30 58
30 60
30 61
30 63
30 64
30 65
30 68
30 70
30 71
30 72
30 73
30 74
30 76
30 77
30 78
30 79
30 80
30 81
30 82
30 85
30 86
30 87
30 88
30 89
30 90
30 91
30 92
30 93
30 94
30 95
30 97
30 98
30 99
30 100
30 101
30 102
30 104
30 105
30 106
30 107
30 108
30 109
30 110
30 111
30 113
30 114
30 115
30 116
30 117
30 118
30 119
30 120
30 121
30 122
30 123
30 125
30 126
30 127
30 129
30 131
30 132
30 135
30 136
30 137
30 138
30 139
30 140
30 141
31 32
31 33
31 34
31 35
31 38
31 40
31 41
31 44
31 47
31 48
31 49
31 50
31 52
31 53
31 54
31 56
31 58
31 60
31 61
31 63
31 64
31 65
31 68
31 70
31 71
31 72
31 73
31 74
31 76
31 77
31 78
31 79
31 80
31 81
31 82
31 85
31 86
31 87
31 88
31 89
31 90
31 91
31 92
31 94
31 95
31 97
31 98
31 99
31 100
31 101
31 102
31 104
31 105
31 107
31 108
31 109
31 110
31 113
31 114
31 115
31 116
31 117
31 118
31 119
31 121
31 122
31 123
31 125
31 127
31 129
31 131
31 132
31 135
31 136
31 137
31 138
31 139
31 140
31 141
32 33
32 34
32 35
32 38
32 40
32 41
32 44
32 45
32 47
32 48
32 49
32 50
32 52
32 53
32 54
32 55
32 56
32 58
32 60
32 61
32 63
32 64
32 65
32 67
32 69
32 70
32 71
32 72
32 73
32 74
32 76
32 77
32 78
32 79
32 80
32 81
32 82
32 85
32 86
32 87
32 88
32 89
32 90
32 91
32 92
32 93
32 94
32 95
32 97
32 98
32 99
32 100
32 101
32 102
32 104
32 105
32 106
32 107
32 108
32 109
32 110
32 111
32 113
32 114
32 115
32 116
32 117
32 118
32 119
32 121
32 122
32 123
32 125
32 126
32 127
32 128
32 129
32 131
32 132
32 135
32 136
32 137
32 138
32 139
32 140
32 141
32 143
33 34
33 35
33 38
33 39
33 40
33 41
33 44
33 47
33 48
33 49
33 50
33 52
33 53
33 54
33 56
33 58
33 60
33 61
33 63
33 64
33 65
33 68
33 70
33 71
33 72
33 73
33 74
33 76
33 77
33 79
33 80
33 81
33 82
33 85
33 86
33 87
33 88
33 89
33 90
33 91
33 92
33 93
33 94
33 95
33 97
33 98
33 99
33 100
33 101
33 102
33 104
33 105
33 107
33 108
33 109
33 110
33 113
33 114
33 115
33 116
33 117
33 118
33 119
33 121
33 122
33 123
33 125
33 127
33 129
33 131
33 132
33 135
33 136
33 137
33 138
33 139
33 140
33 141
34 35
34 38
34 39
34 40
34 41
34 43
34 44
34 46
34 47
34 48
34 49
34 50
34 52
34 53
34 54
34 55
34 56
34 58
34 60
34 61
34 63
34 64
34 65
34 68
34 70
34 71
34 72
34 73
34 74
34 76
34 77
34 78
34 79
34 80
34 81
34 82
34 85
34 86
34 87
34 88
34 89
34 90
34 91
34 92
34 93
34 94
34 95
34 97
34 98
34 99
34 100
34 101
34 102
34 104
34 105
34 106
34 107
34 108
34 109
34 110
34 111
34 113
34 114
34 115
34 116
34 117
34 118
34 119
34 121
34 122
34 123
34 125
34 127
34 129
34 131
34 132
34 135
34 136
34 137
34 138
34 139
34 140
34 141
35 38
35 40
35 41
35 44
35 47
35 48
35 49
35 50
35 52
35 53
35 54
35 56
35 58
35 60
35 61
35 63
35 64
35 65
35 68
35 70
35 71
35 72
35 73
35 74
35 76
35 77
35 78
35 79
35 80
35 81
35 82
35 85
35 86
35 87
35 88
35 89
35 90
35 91
35 92
35 93
35 94
35 95
35 97
35 98
35 99
35 100
35 101
35 102
35 104
35 105
35 107
35 108
35 109
35 110
35 113
35 114
35 115
35 116
35 117
35 118
35 119
35 121
35 122
35 123
35 125
35 127
35 129
35 131
35 132
35 135
35 136
35 137
35 138
35 139
35 140
35 141
36 39
36 43
36 45
36 54
36 55
36 61
36 63
36 71
36 89
36 96
36 100
36 106
36 111
36 121
36 126
36 138
36 141
36 143
37 39
37 43
37 46
37 60
37 64
37 65
37 74
37 82
37 84
37 85
37 90
37 94
37 97
37 98
37 99
37 103
37 104
37 108
37 109
37 111
37 112
37 113
37 120
37 121
37 131
37 138
37 141
38 39
38 40
38 41
38 43
38 44
38 45
38 46
38 47
38 48
38 49
38 50
38 52
38 53
38 54
38 55
38 56
38 58
38 60
38 61
38 63
38 64
38 65
38 68
38 69
38 70
38 71
38 72
38 73
38 74
38 76
38 77
38 78
38 79
38 80
38 81
38 82
38 85
38 86
38 87
38 88
38 89
38 90
38 91
38 92
38 93
38 94
38 95
38 97
38 98
38 99
38 100
38 101
38 102
38 104
38 105
38 106
38 107
38 108
38 109
38 110
38 111
38 113
38 114
38 115
38 116
38 117
38 118
38 119
38 121
38 122
38 123
38 125
38 127
38 129
38 131
38 132
38 135
38 136
38 137
38 138
38 139
38 140
38 141
39 40
39 43
39 45
39 46
39 47
39 48
39 50
39 52
39 54
39 55
39 56
39 58
39 60
39 61
39 63
39 64
39 65
39 71
39 72
39 74
39 76
39 77
39 79
39 81
39 82
39 83
39 85
39 86
39 88
39 89
39 90
39 92
39 94
39 95
39 96
39 97
39 98
39 99
39 100
39 101
39 102
39 104
39 105
39 106
39 108
39 109
39 110
39 111
39 112
39 113
39 114
39 115
39 116
39 117
39 119
39 121
39 122
39 123
39 129
39 130
39 132
39 133
39 136
39 137
39 138
39 141
39 143
40 44
40 47
40 48
40 49
40 50
40 52
40 53
40 54
40 56
40 58
40 60
40 61
40 63
40 64
40 65
40 68
40 70
40 71
40 72
40 73
40 74
40 76
40 77
40 79
40 80
40 81
40 82
40 85
40 86
40 88
40 89
40 90
40 92
40 93
40 94
40 95
40 97
40 98
40 99
40 100
40 101
40 102
40 104
40 105
40 107
40 108
40 109
40 110
40 111
40 113
40 114
40 115
40 116
40 117
40 118
40 119
40 121
40 122
40 123
40 125
40 131
40 132
40 135
40 136
40 137
40 138
40 141
41 44
41 47
41 48
41 49
41 50
41 52
41 53
41 54
41 56
41 58
41 60
41 61
41 62
41 63
41 64
41 65
41 68
41 71
41 72
41 73
41 74
41 78
41 79
41 81
41 82
41 85
41 86
41 87
41 88
41 89
41 90
41 91
41 92
41 93
41 94
41 97
41 98
41 99
41 100
41 101
41 102
41 104
41 105
41 107
41 108
41 109
41 110
41 113
41 114
41 116
41 117
41 118
41 119
41 121
41 122
41 123
41 125
41 127
41 129
41 131
41 132
41 135
41 136
41 137
41 138
41 139
41 140
41 141
42 45
42 51
42 62
42 66
42 67
42 69
42 75
42 124
42 128
42 133
42 134
42 142
42 144
43 46
43 47
43 48
43 53
43 54
43 55
43 56
43 57
43 58
43 60
43 62
43 65
43 71
43 72
43 82
43 83
43 85
43 86
43 88
43 89
43 92
43 95
43 96
43 97
43 98
43 101
43 102
43 105
43 106
43 108
43 111
43 112
43 113
43 114
43 115
43 116
43 117
43 119
43 121
43 122
43 127
43 130
43 132
43 133
43 137
43 138
43 141
43 143
44 47
44 48
44 49
44 50
44 52
44 53
44 54
44 56
44 58
44 60
44 61
44 63
44 64
44 65
44 68
44 70
44 71
44 72
44 73
44 74
44 76
44 77
44 78
44 79
44 80
44 81
44 82
44 85
44 86
44 87
44 88
44 89
44 90
44 91
44 92
44 93
44 94
44 95
44 97
44 98
44 99
44 100
44 101
44 102
44 104
44 105
44 106
44 107
44 108
44 109
44 110
44 113
44 114
44 115
44 116
44 117
44 118
44 119
44 121
44 122
44 123
44 125
44 127
44 129
44 131
44 132
44 135
44 136
44 137
44 138
44 139
44 140
44 141
45 48
45 51
45 54
45 56
45 58
45 60
45 62
45 65
45 66
45 67
45 69
45 72
45 75
45 79
45 81
45 85
45 86
45 88
45 89
45 91
45 92
45 101
45 102
45 105
45 106
45 108
45 116
45 119
45 124
45 128
45 132
45 133
45 136
45 137
45 138
45 141
45 142
45 143
45 144
46 47
46 48
46 54
46 56
46 58
46 60
46 64
46 65
46 71
46 72
46 74
46 79
46 84
46 85
46 86
46 88
46 89
46 92
46 94
46 96
46 97
46 99
46 101
46 103
46 104
46 105
46 107
46 109
46 111
46 112
46 114
46 120
46 121
46 123
46 132
46 136
46 137
46 138
46 141
47 48
47 49
47 50
47 52
47 53
47 54
47 55
47 56
47 58
47 60
47 61
47 63
47 64
47 65
47 68
47 70
47 71
47 72
47 73
47 74
47 76
47 77
47 78
47 79
47 80
47 81
47 82
47 85
47 86
47 87
47 88
47 89
47 90
47 91
47 92
47 94
47 95
47 97
47 98
47 99
47 100
47 101
47 102
47 104
47 105
47 106
47 107
47 108
47 109
47 110
47 111
47 113
47 114
47 115
47 116
47 117
47 118
47 119
47 121
47 122
47 123
47 125
47 127
47 129
47 131
47 132
47 135
47 136
47 137
47 138
47 139
47 140
47 141
48 49
48 50
48 52
48 53
48 54
48 55
48 56
48 58
48 60
48 61
48 63
48 64
48 65
48 68
48 69
48 70
48 71
48 72
48 73
48 74
48 76
48 77
48 78
48 79
48 80
48 81
48 82
48 85
48 86
48 87
48 88
48 89
48 90
48 91
48 92
48 93
48 94
48 95
48 97
48 98
48 99
48 100
48 101
48 102
48 104
48 105
48 106
48 107
48 108
48 109
48 110
48 111
48 113
48 114
48 115
48 116
48 117
48 118
48 119
48 121
48 122
48 123
48 125
48 127
48 129
48 131
48 132
48 135
48 136
48 137
48 138
48 139
48 140
48 141
48 143
49 52
49 53
49 54
49 56
49 58
49 60
49 61
49 63
49 64
49 65
49 68
49 70
49 71
49 72
49 73
49 74
49 76
49 77
49 79
49 80
49 81
49 82
49 85
49 86
49 87
49 88
49 89
49 90
49 92
49 93
49 94
49 95
49 97
49 98
49 99
49 100
49 101
49 102
49 104
49 105
49 107
49 108
49 109
49 110
49 113
49 114
49 115
49 116
49 117
49 118
49 119
49 121
49 122
49 123
49 125
49 127
49 129
49 131
49 132
49 135
49 136
49 137
49 138
49 139
49 140
49 141
50 52
50 53
50 54
50 56
50 58
50 60
50 61
50 63
50 64
50 65
50 68
50 70
50 71
50 72
50 73
50 74
50 76
50 77
50 78
50 79
50 80
50 81
50 82
50 85
50 86
50 87
50 88
50 89
50 90
50 91
50 92
50 93
50 94
50 95
50 97
50 98
50 99
50 100
50 101
50 102
50 104
50 105
50 107
50 108
50 109
50 110
50 111
50 112
50 113
50 114
50 115
50 116
50 117
50 118
50 119
50 120
50 121
50 122
50 123
50 125
50 127
50 129
50 131
50 132
50 135
50 136
50 137
50 138
50 139
50 140
50 141
51 62
51 66
51 67
51 69
51 75
51 124
51 128
51 133
51 134
51 142
51 144
52 53
52 54
52 56
52 58
52 60
52 61
52 63
52 64
52 65
52 68
52 70
52 71
52 72
52 73
52 74
52 76
52 77
52 78
52 79
52 80
52 81
52 82
52 85
52 86
52 87
52 88
52 89
52 90
52 91
52 92
52 93
52 94
52 95
52 97
52 98
52 99
52 100
52 101
52 102
52 104
52 105
52 107
52 108
52 109
52 110
52 113
52 114
52 115
52 116
52 117
52 118
52 119
52 121
52 122
52 123
52 125
52 127
52 129
52 131
52 132
52 135
52 136
52 137
52 138
52 139
52 140
52 141
53 54
53 56
53 58
53 60
53 61
53 63
53 64
53 65
53 68
53 70
53 71
53 72
53 73
53 74
53 76
53 77
53 78
53 79
53 80
53 81
53 82
53 85
53 86
53 87
53 88
53 89
53 90
53 91
53 92
53 93
53 94
53 95
53 97
53 98
53 99
53 100
53 101
53 102
53 104
53 105
53 107
53 108
53 109
53 110
53 111
53 113
53 114
53 115
53 116
53 117
53 118
53 119
53 121
53 122
53 123
53 125
53 127
53 129
53 131
53 132
53 135
53 136
53 137
53 138
53 139
53 140
53 141
54 55
54 56
54 57
54 58
54 60
54 61
54 62
54 63
54 64
54 65
54 68
54 70
54 71
54 72
54 73
54 74
54 76
54 77
54 78
54 79
54 80
54 81
54 82
54 85
54 86
54 87
54 88
54 89
54 90
54 91
54 92
54 93
54 94
54 95
54 97
54 98
54 99
54 100
54 101
54 102
54 104
54 105
54 107
54 108
54 109
54 110
54 111
54 113
54 114
54 115
54 116
54 117
54 118
54 119
54 120
54 121
54 122
54 123
54 125
54 127
54 129
54 131
54 132
54 135
54 136
54 137
54 138
54 139
54 140
54 141
55 56
55 58
55 60
55 61
55 62
55 63
55 64
55 65
55 69
55 71
55 72
55 79
55 82
55 85
55 86
55 88
55 89
55 90
55 91
55 92
55 96
55 97
55 100
55 101
55 102
55 105
55 106
55 108
55 110
55 111
55 113
55 114
55 116
55 119
55 121
55 123
55 126
55 127
55 129
55 132
55 136
55 137
55 138
55 139
55 141
55 143
55 144
56 57
56 58
56 60
56 61
56 63
56 64
56 65
56 68
56 70
56 71
56 72
56 73
56 74
56 76
56 77
56 78
56 79
56 80
56 81
56 82
56 85
56 86
56 87
56 88
56 89
56 90
56 91
56 92
56 93
56 94
56 95
56 97
56 98
56 99
56 100
56 101
56 102
56 104
56 105
56 106
56 107
56 108
56 109
56 110
56 111
56 113
56 114
56 115
56 116
56 117
56 118
56 119
56 121
56 122
56 123
56 124
56 125
56 127
56 129
56 131
56 132
56 133
56 135
56 136
56 137
56 138
56 139
56 140
56 141
57 60
57 65
57 71
57 82
57 85
57 89
57 92
57 108
57 114
58 60
58 61
58 63
58 64
58 65
58 68
58 69
58 70
58 71
58 72
58 73
58 74
58 76
58 77
58 78
58 79
58 80
58 81
58 82
58 85
58 86
58 87
58 88
58 89
58 90
58 91
58 92
58 93
58 94
58 95
58 97
58 98
58 99
58 100
58 101
58 102
58 104
58 105
58 107
58 108
58 109
58 110
58 111
58 113
58 114
58 115
58 116
58 117
58 118
58 119
58 121
58 122
58 123
58 125
58 127
58 129
58 131
58 132
58 135
58 136
58 137
58 138
58 139
58 140
58 141
60 61
60 63
60 64
60 65
60 68
60 69
60 70
60 71
60 72
60 73
60 74
60 76
60 77
60 78
60 79
60 80
60 81
60 82
60 85
60 86
60 87
60 88
60 89
60 90
60 91
60 92
60 93
60 94
60 95
60 97
60 98
60 99
60 100
60 101
60 102
60 104
60 105
60 106
60 107
60 108
60 109
60 110
60 111
60 113
60 114
60 115
60 116
60 117
60 118
60 119
60 120
60 121
60 122
60 123
60 125
60 127
60 129
60 131
60 132
60 135
60 136
60 137
60 138
60 139
60 140
60 141
61 63
61 64
61 65
61 68
61 70
61 71
61 72
61 73
61 74
61 76
61 77
61 78
61 79
61 80
61 81
61 82
61 85
61 86
61 87
61 88
61 89
61 90
61 91
61 92
61 93
61 94
61 95
61 97
61 98
61 99
61 100
61 101
61 102
61 104
61 105
61 106
61 107
61 108
61 109
61 110
61 111
61 113
61 114
61 115
61 116
61 117
61 118
61 119
61 120
61 121
61 122
61 123
61 125
61 126
61 127
61 129
61 131
61 132
61 135
61 136
61 137
61 138
61 139
61 140
61 141
62 66
62 67
62 69
62 71
62 74
62 75
62 82
62 85
62 89
62 94
62 96
62 104
62 106
62 108
62 121
62 124
62 126
62 128
62 133
62 139
62 140
62 142
62 143
62 144
63 64
63 65
63 68
63 70
63 71
63 72
63 73
63 74
63 76
63 77
63 78
63 79
63 80
63 81
63 82
63 85
63 86
63 87
63 88
63 89
63 90
63 91
63 92
63 93
63 94
63 95
63 97
63 98
63 99
63 100
63 101
63 102
63 104
63 105
63 106
63 107
63 108
63 109
63 110
63 111
63 113
63 114
63 115
63 116
63 117
63 118
63 119
63 120
63 121
63 122
63 123
63 125
63 126
63 127
63 129
63 131
63 132
63 135
63 136
63 137
63 138
63 139
63 140
63 141
64 65
64 68
64 70
64 71
64 72
64 73
64 74
64 76
64 77
64 78
64 79
64 80
64 81
64 82
64 85
64 86
64 87
64 88
64 89
64 90
64 91
64 92
64 93
64 94
64 95
64 97
64 98
64 99
64 100
64 101
64 102
64 104
64 105
64 106
64 107
64 108
64 109
64 110
64 111
64 112
64 113
64 114
64 115
64 116
64 117
64 118
64 119
64 121
64 122
64 123
64 125
64 127
64 129
64 131
64 132
64 135
64 136
64 137
64 138
64 139
64 140
64 141
65 68
65 69
65 70
65 71
65 72
65 73
65 74
65 76
65 77
65 78
65 79
65 80
65 81
65 82
65 85
65 86
65 87
65 88
65 89
65 90
65 91
65 92
65 93
65 94
65 95
65 97
65 98
65 99
65 100
65 101
65 102
65 104
65 105
65 106
65 107
65 108
65 109
65 110
65 111
65 113
65 114
65 115
65 116
65 117
65 118
65 119
65 120
65 121
65 122
65 123
65 125
65 127
65 129
65 131
65 132
65 133
65 135
65 136
65 137
65 138
65 139
65 140
65 141
66 67
66 69
66 75
66 106
66 124
66 128
66 133
66 142
66 143
66 144
67 69
67 75
67 85
67 87
67 124
67 128
67 133
67 142
67 143
67 144
68 70
68 71
68 72
68 73
68 74
68 76
68 77
68 79
68 80
68 81
68 82
68 85
68 86
68 88
68 89
68 90
68 92
68 93
68 94
68 95
68 97
68 98
68 99
68 100
68 101
68 102
68 104
68 105
68 107
68 108
68 109
68 110
68 113
68 115
68 116
68 118
68 119
68 121
68 122
68 123
68 125
68 127
68 129
68 131
68 132
68 135
68 136
68 137
68 138
68 140
68 141
69 72
69 75
69 81
69 82
69 85
69 90
69 91
69 92
69 101
69 102
69 105
69 106
69 108
69 116
69 119
69 124
69 128
69 133
69 138
69 142
69 143
69 144
70 71
70 72
70 73
70 74
70 76
70 77
70 79
70 80
70 81
70 82
70 85
70 86
70 87
70 88
70 89
70 90
70 92
70 93
70 94
70 95
70 97
70 98
70 99
70 100
70 101
70 102
70 104
70 105
70 107
70 108
70 109
70 110
70 113
70 114
70 115
70 116
70 117
70 118
70 119
70 121
70 122
70 123
70 125
70 129
70 131
70 132
70 135
70 136
70 137
70 138
70 139
70 140
70 141
71 72
71 73
71 74
71 76
71 77
71 78
71 79
71 80
71 81
71 82
71 85
71 86
71 87
71 88
71 89
71 90
71 91
71 92
71 93
71 94
71 95
71 97
71 98
71 99
71 100
71 101
71 102
71 104
71 105
71 107
71 108
71 109
71 110
71 111
71 113
71 114
71 115
71 116
71 117
71 118
71 119
71 121
71 122
71 123
71 125
71 127
71 129
71 131
71 132
71 135
71 136
71 137
71 138
71 139
71 140
71 141
72 73
72 74
72 76
72 77
72 78
72 79
72 80
72 81
72 82
72 85
72 86
72 87
72 88
72 89
72 90
72 91
72 92
72 93
72 94
72 95
72 97
72 98
72 99
72 100
72 101
72 102
72 104
72 105
72 107
72 108
72 109
72 110
72 111
72 113
72 114
72 115
72 116
72 117
72 118
72 119
72 121
72 122
72 123
72 125
72 127
72 129
72 131
72 132
72 135
72 136
72 137
72 138
72 139
72 140
72 141
73 74
73 76
73 77
73 79
73 80
73 81
73 82
73 85
73 86
73 87
73 88
73 89
73 90
73 91
73 92
73 93
73 94
73 95
73 97
73 98
73 99
73 100
73 101
73 102
73 104
73 105
73 107
73 108
73 109
73 110
73 113
73 114
73 115
73 116
73 117
73 118
73 119
73 121
73 122
73 123
73 125
73 127
73 129
73 131
73 132
73 135
73 136
73 137
73 138
73 139
73 140
73 141
74 76
74 77
74 78
74 79
74 80
74 81
74 82
74 85
74 86
74 87
74 88
74 89
74 90
74 91
74 92
74 93
74 94
74 95
74 97
74 98
74 99
74 100
74 101
74 102
74 104
74 105
74 106
74 107
74 108
74 109
74 110
74 111
74 113
74 114
74 115
74 116
74 117
74 118
74 119
74 121
74 122
74 123
74 125
74 127
74 129
74 131
74 132
74 135
74 136
74 137
74 138
74 139
74 140
74 141
74 143
75 117
75 124
75 128
75 133
75 134
75 142
75 144
76 77
76 78
76 79
76 80
76 81
76 82
76 85
76 86
76 87
76 88
76 89
76 90
76 92
76 93
76 94
76 95
76 97
76 98
76 99
76 100
76 101
76 102
76 104
76 105
76 107
76 108
76 109
76 110
76 111
76 113
76 114
76 115
76 116
76 117
76 118
76 119
76 121
76 122
76 123
76 125
76 127
76 129
76 131
76 132
76 135
76 136
76 137
76 138
76 139
76 140
76 141
77 78
77 79
77 80
77 81
77 82
77 85
77 86
77 87
77 88
77 89
77 90
77 92
77 93
77 94
77 95
77 97
77 98
77 99
77 100
77 101
77 102
77 104
77 105
77 107
77 108
77 109
77 110
77 111
77 113
77 114
77 115
77 116
77 117
77 118
77 119
77 121
77 122
77 123
77 125
77 127
77 129
77 131
77 132
77 135
77 136
77 137
77 138
77 139
77 140
77 141
78 79
78 80
78 81
78 82
78 85
78 86
78 87
78 88
78 89
78 90
78 91
78 92
78 93
78 94
78 95
78 97
78 98
78 99
78 100
78 101
78 102
78 104
78 105
78 107
78 108
78 109
78 110
78 111
78 113
78 114
78 115
78 116
78 117
78 119
78 121
78 123
78 127
78 129
78 131
78 132
78 135
78 136
78 137
78 138
78 139
78 140
78 141
79 80
79 81
79 82
79 85
79 86
79 87
79 88
79 89
79 90
79 91
79 92
79 94
79 95
79 97
79 98
79 99
79 100
79 101
79 102
79 104
79 105
79 107
79 108
79 109
79 110
79 111
79 113
79 114
79 115
79 116
79 117
79 118
79 119
79 121
79 122
79 123
79 125
79 127
79 129
79 131
79 132
79 135
79 136
79 137
79 138
79 139
79 140
79 141
80 81
80 82
80 85
80 86
80 88
80 89
80 90
80 92
80 93
80 94
80 95
80 97
80 98
80 99
80 100
80 101
80 102
80 104
80 105
80 106
80 107
80 108
80 109
80 110
80 113
80 114
80 115
80 116
80 118
80 119
80 121
80 122
80 123
80 125
80 129
80 131
80 132
80 135
80 136
80 137
80 138
80 139
80 140
80 141
81 82
81 85
81 86
81 87
81 88
81 89
81 90
81 91
81 92
81 93
81 94
81 95
81 97
81 98
81 99
81 100
81 101
81 102
81 104
81 105
81 106
81 107
81 108
81 109
81 110
81 111
81 113
81 114
81 115
81 116
81 117
81 118
81 119
81 121
81 122
81 123
81 125
81 127
81 129
81 131
81 132
81 135
81 136
81 137
81 138
81 139
81 140
81 141
81 143
82 85
82 86
82 87
82 88
82 89
82 90
82 91
82 92
82 93
82 94
82 95
82 96
82 97
82 98
82 99
82 100
82 101
82 102
82 104
82 105
82 106
82 107
82 108
82 109
82 110
82 111
82 113
82 114
82 115
82 116
82 117
82 118
82 119
82 121
82 122
82 123
82 124
82 125
82 127
82 129
82 131
82 132
82 135
82 136
82 137
82 138
82 139
82 140
82 141
82 143
83 96
83 106
83 111
83 126
83 130
83 143
84 112
84 120
85 86
85 87
85 88
85 89
85 90
85 91
85 92
85 94
85 95
85 97
85 98
85 99
85 100
85 101
85 102
85 104
85 105
85 106
85 107
85 108
85 109
85 110
85 111
85 113
85 114
85 115
85 116
85 117
85 118
85 119
85 121
85 122
85 123
85 125
85 127
85 129
85 131
85 132
85 133
85 135
85 136
85 137
85 138
85 139
85 140
85 141
85 143
86 87
86 88
86 89
86 90
86 91
86 92
86 93
86 94
86 95
86 97
86 98
86 99
86 100
86 101
86 102
86 104
86 105
86 107
86 108
86 109
86 110
86 111
86 113
86 114
86 115
86 116
86 117
86 118
86 119
86 121
86 122
86 123
86 125
86 127
86 129
86 131
86 132
86 135
86 136
86 137
86 138
86 139
86 140
86 141
87 88
87 89
87 90
87 91
87 92
87 93
87 94
87 95
87 97
87 98
87 99
87 100
87 101
87 102
87 104
87 105
87 106
87 107
87 108
87 109
87 110
87 111
87 113
87 114
87 115
87 116
87 117
87 118
87 119
87 121
87 123
87 125
87 127
87 129
87 131
87 132
87 135
87 136
87 137
87 138
87 139
87 140
87 141
88 89
88 90
88 91
88 92
88 94
88 95
88 97
88 98
88 99
88 100
88 101
88 102
88 104
88 105
88 107
88 108
88 109
88 110
88 111
88 113
88 114
88 115
88 116
88 117
88 118
88 119
88 121
88 122
88 123
88 125
88 127
88 129
88 131
88 132
88 135
88 136
88 137
88 138
88 139
88 140
88 141
89 90
89 91
89 92
89 93
89 94
89 95
89 97
89 98
89 99
89 100
89 101
89 102
89 104
89 105
89 107
89 108
89 109
89 110
89 111
89 113
89 114
89 115
89 116
89 117
89 118
89 119
89 120
89 121
89 122
89 123
89 125
89 127
89 129
89 131
89 132
89 135
89 136
89 137
89 138
89 139
89 140
89 141
90 91
90 92
90 93
90 94
90 95
90 97
90 98
90 99
90 100
90 101
90 102
90 104
90 105
90 106
90 107
90 108
90 109
90 110
90 111
90 113
90 114
90 115
90 116
90 117
90 118
90 119
90 121
90 122
90 123
90 124
90 125
90 127
90 129
90 131
90 132
90 135
90 136
90 137
90 138
90 139
90 140
90 141
90 143
91 92
91 93
91 94
91 97
91 98
91 99
91 100
91 101
91 102
91 104
91 105
91 107
91 108
91 109
91 110
91 111
91 113
91 114
91 115
91 116
91 117
91 119
91 121
91 123
91 125
91 127
91 129
91 131
91 132
91 135
91 136
91 137
91 138
91 139
91 140
91 141
91 143
92 93
92 94
92 95
92 97
92 98
92 99
92 100
92 101
92 102
92 104
92 105
92 106
92 107
92 108
92 109
92 110
92 111
92 113
92 114
92 115
92 116
92 117
92 118
92 119
92 121
92 122
92 123
92 124
92 125
92 127
92 129
92 131
92 132
92 135
92 136
92 137
92 138
92 139
92 140
92 141
93 94
93 95
93 97
93 98
93 99
93 100
93 101
93 102
93 104
93 105
93 107
93 108
93 109
93 110
93 113
93 114
93 115
93 116
93 117
93 118
93 119
93 121
93 122
93 125
93 127
93 129
93 131
93 135
93 138
93 139
93 140
93 141
94 95
94 97
94 98
94 99
94 100
94 101
94 102
94 104
94 105
94 106
94 107
94 108
94 109
94 110
94 111
94 113
94 114
94 115
94 116
94 117
94 118
94 119
94 121
94 122
94 123
94 125
94 127
94 129
94 131
94 132
94 135
94 136
94 137
94 138
94 139
94 140
94 141
94 143
95 97
95 98
95 99
95 100
95 101
95 102
95 104
95 105
95 106
95 107
95 108
95 109
95 110
95 111
95 113
95 114
95 115
95 116
95 117
95 118
95 119
95 121
95 122
95 123
95 125
95 127
95 129
95 131
95 132
95 135
95 136
95 137
95 138
95 139
95 140
95 141
95 143
96 106
96 108
96 111
96 126
96 128
96 130
96 143
97 98
97 99
97 100
97 101
97 102
97 104
97 105
97 106
97 107
97 108
97 109
97 110
97 111
97 112
97 113
97 114
97 115
97 116
97 117
97 118
97 119
97 120
97 121
97 122
97 123
97 125
97 127
97 129
97 131
97 132
97 135
97 136
97 137
97 138
97 139
97 140
97 141
97 143
98 99
98 100
98 101
98 102
98 104
98 105
98 107
98 108
98 109
98 110
98 111
98 113
98 114
98 115
98 116
98 117
98 118
98 119
98 120
98 121
98 122
98 123
98 125
98 127
98 129
98 131
98 132
98 133
98 135
98 136
98 137
98 138
98 139
98 140
98 141
99 100
99 101
99 102
99 104
99 105
99 107
99 108
99 109
99 110
99 111
99 113
99 114
99 115
99 116
99 117
99 118
99 119
99 121
99 122
99 123
99 125
99 127
99 129
99 131
99 132
99 135
99 136
99 137
99 138
99 139
99 140
99 141
100 101
100 102
100 104
100 105
100 106
100 107
100 108
100 109
100 110
100 111
100 113
100 114
100 115
100 116
100 117
100 118
100 119
100 120
100 121
100 122
100 123
100 125
100 126
100 127
100 129
100 131
100 132
100 135
100 136
100 137
100 138
100 139
100 140
100 141
101 102
101 104
101 105
101 106
101 107
101 108
101 109
101 110
101 111
101 113
101 114
101 115
101 116
101 117
101 118
101 119
101 121
101 122
101 123
101 125
101 127
101 129
101 131
101 132
101 135
101 136
101 137
101 138
101 139
101 140
101 141
101 143
102 104
102 105
102 107
102 108
102 109
102 110
102 111
102 113
102 114
102 115
102 116
102 117
102 118
102 119
102 121
102 122
102 123
102 124
102 125
102 127
102 129
102 131
102 132
102 135
102 136
102 137
102 138
102 139
102 140
102 141
103 112
103 120
104 105
104 106
104 107
104 108
104 109
104 110
104 111
104 113
104 114
104 115
104 116
104 117
104 118
104 119
104 121
104 122
104 123
104 125
104 127
104 129
104 131
104 132
104 135
104 136
104 137
104 138
104 139
104 140
104 141
104 143
105 107
105 108
105 109
105 110
105 111
105 113
105 114
105 115
105 116
105 117
105 118
105 119
105 121
105 122
105 123
105 125
105 127
105 129
105 131
105 132
105 135
105 136
105 137
105 138
105 139
105 140
105 141
106 108
106 111
106 113
106 117
106 121
106 122
106 126
106 129
106 130
106 138
106 139
106 141
106 143
107 108
107 109
107 110
107 111
107 113
107 114
107 115
107 116
107 117
107 118
107 119
107 121
107 122
107 123
107 125
107 127
107 129
107 131
107 132
107 135
107 136
107 137
107 138
107 139
107 140
107 141
108 109
108 110
108 111
108 113
108 114
108 115
108 116
108 117
108 118
108 119
108 121
108 122
108 123
108 124
108 125
108 126
108 127
108 129
108 131
108 132
108 135
108 136
108 137
108 138
108 139
108 140
108 141
108 143
109 110
109 111
109 113
109 114
109 115
109 116
109 117
109 118
109 119
109 121
109 122
109 123
109 125
109 127
109 129
109 131
109 132
109 135
109 136
109 137
109 138
109 139
109 140
109 141
110 111
110 113
110 114
110 115
110 116
110 117
110 118
110 119
110 121
110 122
110 123
110 125
110 127
110 129
110 131
110 132
110 135
110 136
110 137
110 138
110 139
110 140
110 141
111 112
111 113
111 114
111 115
111 116
111 117
111 119
111 121
111 122
111 123
111 129
111 130
111 132
111 136
111 137
111 138
111 139
111 141
111 143
112 120
113 114
113 115
113 116
113 117
113 118
113 119
113 120
113 121
113 122
113 123
113 125
113 127
113 129
113 131
113 132
113 135
113 136
113 137
113 138
113 139
113 140
113 141
114 115
114 116
114 117
114 118
114 119
114 121
114 122
114 123
114 125
114 127
114 129
114 131
114 132
114 133
114 135
114 136
114 137
114 138
114 139
114 140
114 141
115 116
115 117
115 118
115 119
115 121
115 122
115 123
115 125
115 129
115 131
115 132
115 135
115 136
115 137
115 138
115 139
115 141
116 117
116 118
116 119
116 121
116 122
116 123
116 125
116 127
116 129
116 131
116 132
116 135
116 136
116 137
116 138
116 139
116 140
116 141
117 118
117 119
117 121
117 122
117 123
117 125
117 127
117 128
117 129
117 131
117 132
117 135
117 136
117 137
117 138
117 139
117 140
117 141
118 119
118 121
118 122
118 123
118 125
118 127
118 129
118 131
118 132
118 135
118 136
118 137
118 138
118 139
118 140
118 141
119 121
119 122
119 123
119 125
119 127
119 129
119 131
119 132
119 135
119 136
119 137
119 138
119 139
119 140
119 141
121 122
121 123
121 125
121 127
121 129
121 131
121 132
121 133
121 135
121 136
121 137
121 138
121 139
121 140
121 141
121 143
122 123
122 125
122 127
122 129
122 131
122 132
122 135
122 136
122 137
122 138
122 139
122 140
122 141
123 125
123 127
123 129
123 131
123 132
123 135
123 136
123 137
123 138
123 139
123 140
123 141
124 128
124 133
124 142
124 143
124 144
125 127
125 129
125 131
125 132
125 135
125 136
125 137
125 138
125 139
125 140
125 141
126 130
126 139
126 143
127 129
127 131
127 132
127 135
127 136
127 137
127 138
127 139
127 140
127 141
128 133
128 140
128 142
128 143
128 144
129 131
129 132
129 135
129 136
129 137
129 138
129 139
129 140
129 141
130 143
131 132
131 135
131 136
131 137
131 138
131 139
131 140
131 141
132 135
132 136
132 137
132 138
132 139
132 140
132 141
133 139
133 142
133 144
134 142
135 136
135 137
135 138
135 139
135 140
135 141
136 137
136 138
136 139
136 140
136 141
137 138
137 139
137 140
137 141
138 139
138 140
138 141
138 143
139 140
139 141
139 143
140 141
142 144
143 144
